unsat
(define-fun SC ((s (_ BitVec 4)) (t (_ BitVec 4))) Bool (bvsge (bvlshr s (bvlshr s #b0011)) t))
70.13user 0.73system 1:10.87elapsed 99%CPU (0avgtext+0avgdata 1004804maxresident)k
0inputs+8outputs (0major+267422minor)pagefaults 0swaps
